0000000000000000
0000000000000000
0000000000000000
0000000000000000
0011111111111000
0000000000001110
0000000000000110
0000011100000010
0000001100000010
0000000100000010
0000000100000010
0000000100000010
0000000100000010
0000000100000010
0000000100000010
0000000000000000
